
  22   10
  10   10   10   10   10   10   10   10   10   10

   0   0   0   0   0   0   0   0   0   0   0   3 2 4 6 
   1   0   0   0   0   0   0   0   0  10   0   2 7 3 
   7   0   0   0   0   0   0   0   0  10   0   3 10 9 8 
   2   0   0   0   0   0  10   0   0   0   0   1 5 
   7   0   0   0   0   0  10   0   0   0   0   2 14 7 
   8   0   0   0   0   0   0   0   0   0  10   2 21 8 
   1   0   0   0  10   0   0   0   0   0   0   4 21 13 11 9 
   9   0   0   0   0   0   0   0  10   0   0   4 14 13 12 11 
   2   0   0   0   0   0   0   0   0  10   0   4 20 19 18 12 
  10   0   0   0   0   0   0   0   0   0  10   4 21 18 17 12 
   7  10   0   0   0   0   0   0   0   0   0   4 20 19 18 17 
   4   0   0   0   0   0   0   0  10   0   0   2 16 15 
   3   0   0   0   0   0   0   0  10   0   0   2 17 15 
   8  10   0   0   0   0   0   0   0   0   0   2 16 15 
   9   0   0   0  10   0   0   0   0   0   0   1 22
  10   0   0   0   0   0  10   0   0   0   0   1 22
   6  10   0   0   0   0   0   0   0   0   0   1 22
   9   0   0   0   0   0   0  10   0   0   0   1 22
   3   0   0   0   0   0   0   0  10   0   0   1 22
   3   0   0   0   0  10   0   0   0   0   0   1 22
   1   0   0   0   0   0   0   0   0  10   0   1 22
   0   0   0   0   0   0   0   0   0   0   0   0 
